solution status: optimal solution found
objective value:                                    0
$_25__7_y                                           3 	(obj:0)
$_25__7_z                                          11 	(obj:0)
$_22__7_y                                          11 	(obj:0)
$_22__7_z                                          24 	(obj:0)
one.thingy.devices[0].thingy.column_lower_y                   10 	(obj:0)
one.thingy.devices[0].thingy.column_lower_z                   23 	(obj:0)
$_19__7_y                                          11 	(obj:0)
$_19__7_z                                          15 	(obj:0)
one.ctrl_s[3].hole_y                               11 	(obj:0)
one.ctrl_s[3].hole_z                               23 	(obj:0)
one.thingy.devices[1].thingy.column_lower_y                   10 	(obj:0)
one.thingy.devices[1].thingy.column_lower_z                   17 	(obj:0)
$_20__7_y                                           7 	(obj:0)
$_20__7_z                                          12 	(obj:0)
$_24__7_y                                           7 	(obj:0)
$_24__7_z                                          15 	(obj:0)
$_23__7_y                                          11 	(obj:0)
$_23__7_z                                          17 	(obj:0)
one.thingy.devices[3].thingy.column_lower_y                    3 	(obj:0)
one.thingy.devices[3].thingy.column_lower_z                   10 	(obj:0)
one.ctrl_s[3].flush_y                               2 	(obj:0)
one.ctrl_s[3].flush_z                              10 	(obj:0)
$_18__7_y                                          14 	(obj:0)
$_18__7_z                                          14 	(obj:0)
one.thingy.devices[2].thingy.column_lower_y                    7 	(obj:0)
one.thingy.devices[2].thingy.column_lower_z                   14 	(obj:0)
$_21__7_y                                           2 	(obj:0)
$_21__7_z                                          11 	(obj:0)
